
Gurobi 10.0.1 (mac64[arm]) logging started Fri Sep 22 17:23:52 2023

Set parameter LogFile to value "results/scenario_returns/returns_alpha/M_j_a_-50/mip_log.txt"
Gurobi Optimizer version 10.0.1 build v10.0.1rc0 (mac64[arm])

CPU model: Apple M1
Thread count: 8 physical cores, 8 logical processors, using up to 8 threads

Optimize a model with 1724 rows, 6293 columns and 24662 nonzeros
Model fingerprint: 0x843ad96a
Model has 8978 general constraints
Variable types: 1 continuous, 6292 integer (408 binary)
Coefficient statistics:
  Matrix range     [6e-02, 3e+05]
  Objective range  [9e-02, 2e+05]
  Bounds range     [1e+00, 2e+07]
  RHS range        [2e+03, 2e+04]
  GenCon rhs range [1e+00, 1e+00]
  GenCon coe range [1e+00, 1e+00]
Presolve removed 124 rows and 556 columns
Presolve time: 0.10s
Presolved: 1600 rows, 5737 columns, 22975 nonzeros
Presolved model has 4 SOS constraint(s)
Variable types: 0 continuous, 5737 integer (34 binary)

Root relaxation: objective 5.864851e+07, 6371 iterations, 0.06 seconds (0.08 work units)

    Nodes    |    Current Node    |     Objective Bounds      |     Work
 Expl Unexpl |  Obj  Depth IntInf | Incumbent    BestBd   Gap | It/Node Time

     0     0 5.8649e+07    0  431          - 5.8649e+07      -     -    0s
     0     0 5.8684e+07    0  753          - 5.8684e+07      -     -    0s
     0     0 5.9191e+07    0  729          - 5.9191e+07      -     -    0s
     0     0 5.9191e+07    0  730          - 5.9191e+07      -     -    0s
     0     0 5.9191e+07    0  725          - 5.9191e+07      -     -    0s
H    0     0                    6.293864e+07 5.9191e+07  5.95%     -    0s
     0     0 5.9197e+07    0  860 6.2939e+07 5.9197e+07  5.94%     -    0s
     0     0 5.9201e+07    0  918 6.2939e+07 5.9201e+07  5.94%     -    0s
     0     0 5.9201e+07    0  918 6.2939e+07 5.9201e+07  5.94%     -    0s
     0     0 5.9299e+07    0 1300 6.2939e+07 5.9299e+07  5.78%     -    0s
H    0     0                    6.292498e+07 5.9299e+07  5.76%     -    0s
     0     0 5.9325e+07    0 1329 6.2925e+07 5.9325e+07  5.72%     -    0s
H    0     0                    6.171552e+07 5.9325e+07  3.87%     -    0s
     0     0 5.9331e+07    0 1243 6.1716e+07 5.9331e+07  3.86%     -    0s
     0     0 5.9336e+07    0 1244 6.1716e+07 5.9336e+07  3.86%     -    0s
     0     0 5.9336e+07    0 1243 6.1716e+07 5.9336e+07  3.86%     -    0s
H    0     0                    6.138589e+07 5.9342e+07  3.33%     -    0s
     0     0 5.9392e+07    0 1502 6.1386e+07 5.9392e+07  3.25%     -    0s
     0     0 5.9412e+07    0 1493 6.1386e+07 5.9412e+07  3.22%     -    1s
H    0     0                    6.137824e+07 5.9412e+07  3.20%     -    1s
     0     2 5.9412e+07    0 1485 6.1378e+07 5.9412e+07  3.20%     -    1s
H   36    40                    6.121321e+07 5.9476e+07  2.84%  1302    2s
*   76    71               9    6.118691e+07 5.9476e+07  2.80%   898    2s
*  240   127              10    6.103797e+07 5.9518e+07  2.49%   446    3s
   679   123     cutoff   10      6.1038e+07 5.9920e+07  1.83%   290    5s

Cutting planes:
  Gomory: 1
  Cover: 3
  Implied bound: 2024
  MIR: 68
  Flow path: 1
  Inf proof: 13
  Relax-and-lift: 96

Explored 960 nodes (293578 simplex iterations) in 5.96 seconds (10.34 work units)
Thread count was 8 (of 8 available processors)

Solution count 8: 6.1038e+07 6.11869e+07 6.12132e+07 ... 6.29386e+07

Optimal solution found (tolerance 1.00e-04)
Best objective 6.103796580500e+07, best bound 6.103796580500e+07, gap 0.0000%

Gurobi 10.0.1 (mac64[arm]) logging started Fri Sep 22 17:52:45 2023

Set parameter LogFile to value "results/scenario_returns/returns_alpha/M_j_a_-50/mip_log.txt"
Gurobi Optimizer version 10.0.1 build v10.0.1rc0 (mac64[arm])

CPU model: Apple M1
Thread count: 8 physical cores, 8 logical processors, using up to 8 threads

Optimize a model with 1694 rows, 6293 columns and 24572 nonzeros
Model fingerprint: 0x86f1a5cb
Model has 8978 general constraints
Variable types: 1 continuous, 6292 integer (408 binary)
Coefficient statistics:
  Matrix range     [6e-02, 3e+05]
  Objective range  [9e-02, 2e+05]
  Bounds range     [1e+00, 2e+07]
  RHS range        [2e+03, 2e+04]
  GenCon rhs range [1e+00, 1e+00]
  GenCon coe range [1e+00, 1e+00]
Presolve removed 67 rows and 502 columns
Presolve time: 0.10s
Presolved: 1627 rows, 5791 columns, 23138 nonzeros
Presolved model has 4 SOS constraint(s)
Variable types: 0 continuous, 5791 integer (34 binary)

Root relaxation: objective 5.543388e+07, 6413 iterations, 0.09 seconds (0.09 work units)

    Nodes    |    Current Node    |     Objective Bounds      |     Work
 Expl Unexpl |  Obj  Depth IntInf | Incumbent    BestBd   Gap | It/Node Time

     0     0 5.5434e+07    0  441          - 5.5434e+07      -     -    0s
H    0     0                    6.600547e+07 5.5469e+07  16.0%     -    0s
     0     0 5.5972e+07    0  864 6.6005e+07 5.5972e+07  15.2%     -    0s
H    0     0                    6.144514e+07 5.5972e+07  8.91%     -    0s
H    0     0                    5.844344e+07 5.5972e+07  4.23%     -    0s
     0     0 5.6008e+07    0  840 5.8443e+07 5.6008e+07  4.17%     -    0s
     0     0 5.6013e+07    0  892 5.8443e+07 5.6013e+07  4.16%     -    0s
     0     0 5.6014e+07    0  894 5.8443e+07 5.6014e+07  4.16%     -    0s
H    0     0                    5.840943e+07 5.6034e+07  4.07%     -    0s
H    0     0                    5.800595e+07 5.6034e+07  3.40%     -    0s
     0     0 5.6077e+07    0 1260 5.8006e+07 5.6077e+07  3.33%     -    0s
     0     0 5.6153e+07    0 1301 5.8006e+07 5.6153e+07  3.20%     -    0s
     0     0 5.6198e+07    0 1360 5.8006e+07 5.6198e+07  3.12%     -    0s
     0     0 5.6203e+07    0 1369 5.8006e+07 5.6203e+07  3.11%     -    0s
     0     0 5.6205e+07    0 1400 5.8006e+07 5.6205e+07  3.10%     -    0s
     0     0 5.6409e+07    0 1548 5.8006e+07 5.6409e+07  2.75%     -    0s
     0     0 5.6444e+07    0 1538 5.8006e+07 5.6444e+07  2.69%     -    1s
H    0     0                    5.800110e+07 5.6444e+07  2.68%     -    1s
     0     2 5.6444e+07    0 1537 5.8001e+07 5.6444e+07  2.68%     -    1s
H   70    73                    5.796984e+07 5.6468e+07  2.59%   471    2s
*  148    83              17    5.782649e+07 5.6489e+07  2.31%   330    2s
*  152    83              17    5.782045e+07 5.6489e+07  2.30%   324    2s

Cutting planes:
  Gomory: 3
  Cover: 3
  Implied bound: 1906
  MIR: 71
  Flow path: 1
  Inf proof: 13
  Relax-and-lift: 83

Explored 719 nodes (245509 simplex iterations) in 4.81 seconds (7.51 work units)
Thread count was 8 (of 8 available processors)

Solution count 9: 5.78204e+07 5.78265e+07 5.79698e+07 ... 6.60055e+07

Optimal solution found (tolerance 1.00e-04)
Best objective 5.782044614500e+07, best bound 5.782044614500e+07, gap 0.0000%

Gurobi 10.0.1 (mac64[arm]) logging started Fri Sep 22 19:35:06 2023

Set parameter LogFile to value "results/scenario_returns/returns_alpha/M_j_a_-50/mip_log.txt"
Gurobi Optimizer version 10.0.1 build v10.0.1rc0 (mac64[arm])

CPU model: Apple M1
Thread count: 8 physical cores, 8 logical processors, using up to 8 threads

Optimize a model with 1694 rows, 6293 columns and 24572 nonzeros
Model fingerprint: 0x01625eaa
Model has 8978 general constraints
Variable types: 1 continuous, 6292 integer (408 binary)
Coefficient statistics:
  Matrix range     [6e-02, 3e+05]
  Objective range  [9e-02, 2e+05]
  Bounds range     [1e+00, 2e+07]
  RHS range        [2e+03, 2e+04]
  GenCon rhs range [1e+00, 1e+00]
  GenCon coe range [1e+00, 1e+00]
Presolve removed 67 rows and 502 columns
Presolve time: 0.07s
Presolved: 1627 rows, 5791 columns, 23173 nonzeros
Presolved model has 4 SOS constraint(s)
Variable types: 0 continuous, 5791 integer (34 binary)

Root relaxation: objective 5.942989e+07, 5349 iterations, 0.05 seconds (0.06 work units)

    Nodes    |    Current Node    |     Objective Bounds      |     Work
 Expl Unexpl |  Obj  Depth IntInf | Incumbent    BestBd   Gap | It/Node Time

     0     0 5.9430e+07    0  521          - 5.9430e+07      -     -    0s
H    0     0                    6.737883e+07 5.9616e+07  11.5%     -    0s
     0     0 6.0016e+07    0 1178 6.7379e+07 6.0016e+07  10.9%     -    0s
H    0     0                    6.596615e+07 6.0016e+07  9.02%     -    0s
H    0     0                    6.552908e+07 6.0016e+07  8.41%     -    0s
     0     0 6.0105e+07    0 1189 6.5529e+07 6.0105e+07  8.28%     -    0s
     0     0 6.0143e+07    0 1187 6.5529e+07 6.0143e+07  8.22%     -    0s
     0     0 6.0143e+07    0 1154 6.5529e+07 6.0143e+07  8.22%     -    0s
     0     0 6.1010e+07    0 1393 6.5529e+07 6.1010e+07  6.90%     -    0s
H    0     0                    6.552896e+07 6.1010e+07  6.90%     -    0s
     0     0 6.1143e+07    0 1381 6.5529e+07 6.1143e+07  6.69%     -    0s
H    0     0                    6.384409e+07 6.1143e+07  4.23%     -    1s
     0     2 6.1143e+07    0 1377 6.3844e+07 6.1143e+07  4.23%     -    1s
H   34    40                    6.315943e+07 6.1143e+07  3.19%  1459    2s
H   37    40                    6.253017e+07 6.1143e+07  2.22%  1479    2s
H   68    69                    6.252337e+07 6.1143e+07  2.21%  1055    3s
H   70    69                    6.252034e+07 6.1143e+07  2.20%  1029    3s
H   73    69                    6.252001e+07 6.1143e+07  2.20%  1014    3s
H   74    69                    6.251835e+07 6.1143e+07  2.20%  1009    3s
*   91    85              11    6.244076e+07 6.1143e+07  2.08%   879    3s
H  114    89                    6.208352e+07 6.1143e+07  1.52%   758    3s
*  206   113              23    6.205457e+07 6.1143e+07  1.47%   650    4s
*  219   111              15    6.202741e+07 6.1143e+07  1.43%   632    4s
*  375   138              20    6.200051e+07 6.1143e+07  1.38%   489    4s
   444   124 6.1143e+07   11  833 6.2001e+07 6.1143e+07  1.38%   461    5s

Cutting planes:
  Gomory: 5
  Cover: 2
  Implied bound: 1768
  MIR: 108
  Flow path: 1
  Inf proof: 1
  Relax-and-lift: 77

Explored 789 nodes (350443 simplex iterations) in 6.80 seconds (11.04 work units)
Thread count was 8 (of 8 available processors)

Solution count 10: 6.20005e+07 6.20274e+07 6.20546e+07 ... 6.25302e+07

Optimal solution found (tolerance 1.00e-04)
Best objective 6.200051359500e+07, best bound 6.200051359500e+07, gap 0.0000%
Discarded solution information
